CapLotSizing_PM/src/Instancias/NCLSLT/12i12p2m/NBB05.OUT
 CG ITER, OVMR, OVMRUB =           1   35612.0078125   35612.0078125
 CG ITER, OVMR, OVMRUB =           2   34670.5078125   34670.5078125
 CG ITER, OVMR, OVMRUB =           3   34152.5351562   34670.5078125
 CG ITER, OVMR, OVMRUB =           4   32157.3632812   34670.5078125
 CG ITER, OVMR, OVMRUB =           5   31908.7148438   34670.5078125
 CG ITER, OVMR, OVMRUB =           6   32225.7246094   34670.5078125
 CG ITER, OVMR, OVMRUB =           7   32238.0996094   34670.5078125
 CG ITER, OVMR, OVMRUB =           8   32264.0253906   34670.5078125
 CG ITER, OVMR, OVMRUB =           9   32262.7851562   34670.5078125
 CG ITER, OVMR, OVMRUB =          10   32297.5000000   34670.5078125
 CG ITER, OVMR, OVMRUB =          11   32325.0019531   34670.5078125
 CG ITER, OVMR, OVMRUB =          12   32340.8886719   34670.5078125
 CG ITER, OVMR, OVMRUB =          13   32287.1445312   34670.5078125
 CG ITER, OVMR, OVMRUB =          14   32215.2714844   34670.5078125
 CG ITER, OVMR, OVMRUB =          15   32187.5488281   34670.5078125
 CG ITER, OVMR, OVMRUB =          16   32145.6933594   34670.5078125
 CG ITER, OVMR, OVMRUB =          17   32103.1328125   34670.5078125
 CG ITER, OVMR, OVMRUB =          18   32071.4218750   34670.5078125
 CG ITER, OVMR, OVMRUB =          19   32044.2128906   34670.5078125
 CG ITER, OVMR, OVMRUB =          20   32011.7988281   34670.5078125
 CG ITER, OVMR, OVMRUB =          21   31986.2148438   34670.5078125
 CG ITER, OVMR, OVMRUB =          22   31957.1914062   34670.5078125
 CG ITER, OVMR, OVMRUB =          23   31934.8183594   34670.5078125
 CG ITER, OVMR, OVMRUB =          24   31915.3437500   34670.5078125
 CG ITER, OVMR, OVMRUB =          25   31911.3437500   34670.5078125
 CG ITER, OVMR, OVMRUB =          26   31904.1933594   34670.5078125
 CG ITER, OVMR, OVMRUB =          27   31904.0488281   34610.6914062
 CG ITER, OVMR, OVMRUB =          28   31897.3437500   34046.0976562
 CG ITER, OVMR, OVMRUB =          29   31884.5117188   34046.0976562
 CG ITER, OVMR, OVMRUB =          30   31883.9804688   34046.0976562
 CG ITER, OVMR, OVMRUB =          31   31883.0390625   33399.3789062
 CG ITER, OVMR, OVMRUB =          32   31882.8906250   33399.3789062
 CG ITER, OVMR, OVMRUB =          33   31882.8925781   32457.6132812
 CG ITER, OVMR, OVMRUB =          34   31882.8906250   32457.6132812
 CG ITER, OVMR, OVMRUB =          35   31882.8964844   32457.6132812
 CG ITER, OVMR, OVMRUB =          36   31882.8906250   32457.6132812
 CG ITER, OVMR, OVMRUB =          37   31882.8964844   32457.6132812
 CG ITER, OVMR, OVMRUB =          38   31882.8906250   32457.6132812
 CG ITER, OVMR, OVMRUB =          39   31882.8945312   32457.6132812
 CG ITER, OVMR, OVMRUB =          40   31882.8925781   32327.2167969
 CG ITER, OVMR, OVMRUB =          41   31882.8886719   32327.2167969
 CG ITER, OVMR, OVMRUB =          42   31882.8906250   32327.2167969
 CG ITER, OVMR, OVMRUB =          43   31882.8906250   32327.2167969
OVLB =   31882.8906250 OVLUB =   32327.2167969 TIME =      12.2900000
